N = 9;
H = 6;
T = 2;

avail = array3d(1..N, 1..H, 1..T, [0, 1, 7, 7, 6, 10, 1, 3, 6, 5, 8, 9, 5, 8, 1, 7, 4, 2, 9, 10, 10, 6, 1, 2, 1, 3, 10, 10, 8, 2, 8, 10, 6, 1, 9, 0, 4, 10, 9, 4, 3, 8, 3, 0, 5, 0, 6, 10, 3, 10, 5, 10, 10, 0, 7, 10, 7, 10, 1, 4, 8, 9, 6, 4, 4, 1, 10, 7, 2, 1, 4, 2, 7, 3, 0, 4, 2, 2, 1, 0, 0, 10, 1, 2, 2, 9, 9, 8, 3, 4, 8, 0, 8, 6, 8, 9, 3, 3, 3, 2, 1, 0, 3, 5, 3, 4, 5, 7]);

r = array2d(1..H, 1..T, [2, 2, 1, 5, 1, 2, 0, 4, 2, 3, 3, 2]);
